1142.64 0
0 88 109 21 26 28 25 22 24 27 30 33 31 34 36 35 32 29 37 38 39 115 95 0 
0 85 112 84 117 113 83 6 5 3 4 11 10 9 7 108 118 18 90 89 0 
0 81 2 1 15 14 13 8 12 17 16 19 23 20 114 91 0 
0 102 100 116 40 42 41 44 47 46 49 50 51 48 45 43 98 103 0 
0 120 119 82 111 86 87 92 93 96 94 97 99 101 106 105 0 
0 53 55 58 56 60 63 66 64 62 61 65 59 57 54 52 110 0 
0 107 67 69 70 71 74 72 75 78 80 79 77 76 73 68 104 0 
